27 27
21
3 3 13 4
3 4 13 0
3 5 24 0
3 6 0 0
3 7 10 0
3 8 3 19
3 9 13 18
3 10 24 5
3 11 13 7
3 12 24 15
3 19 3 0
3 20 10 7
3 21 0 6
4 3 20 0
4 4 20 9
4 6 20 3
4 7 6 0
4 8 16 19
4 14 20 13
4 19 16 0
4 20 6 7
